
Gurobi 10.0.1 (mac64[arm]) logging started Fri Mar 29 18:20:09 2024

Set parameter LogFile to value "/Users/deniserings/Documents/zib/s-bahn-data/scripts/DeniseMA/processed/BPKW_BKRW_BSNF_O/original/BPKW_BKRW_BSNF_O_202403291817_RINSstart.log"
Gurobi Optimizer version 10.0.1 build v10.0.1rc0 (mac64[arm])

CPU model: Apple M2
Thread count: 8 physical cores, 8 logical processors, using up to 8 threads

Optimize a model with 4411 rows, 2168 columns and 15763 nonzeros
Model fingerprint: 0xda16f6b4
Variable types: 838 continuous, 1330 integer (358 binary)
Coefficient statistics:
  Matrix range     [1e+00, 2e+02]
  Objective range  [1e+00, 4e+02]
  Bounds range     [1e+00, 2e+02]
  RHS range        [1e+00, 5e+02]
Presolve removed 2388 rows and 1018 columns
Presolve time: 0.08s
Presolved: 2023 rows, 1150 columns, 8423 nonzeros
Variable types: 376 continuous, 774 integer (774 binary)

Root relaxation: objective 9.180000e+03, 764 iterations, 0.01 seconds (0.01 work units)

    Nodes    |    Current Node    |     Objective Bounds      |     Work
 Expl Unexpl |  Obj  Depth IntInf | Incumbent    BestBd   Gap | It/Node Time

     0     0 9180.00000    0   52          - 9180.00000      -     -    0s
     0     0 9180.00000    0  101          - 9180.00000      -     -    0s
H    0     0                    11211.000000 9180.00000  18.1%     -    0s
     0     0 9180.00000    0   98 11211.0000 9180.00000  18.1%     -    0s
H    0     0                    10930.000000 9182.86115  16.0%     -    0s
     0     0 9182.86115    0   24 10930.0000 9182.86115  16.0%     -    0s
H    0     0                    10928.000000 9182.86115  16.0%     -    0s
H    0     0                    10871.000000 9182.86115  15.5%     -    0s
     0     0 9182.86115    0   29 10871.0000 9182.86115  15.5%     -    0s
     0     0 9197.00000    0   30 10871.0000 9197.00000  15.4%     -    0s
     0     0 9197.00000    0   33 10871.0000 9197.00000  15.4%     -    0s
     0     0 9197.00000    0   33 10871.0000 9197.00000  15.4%     -    0s
H    0     0                    10736.000000 9197.00000  14.3%     -    0s
     0     0 9197.00000    0   20 10736.0000 9197.00000  14.3%     -    0s
     0     0 9197.00000    0   29 10736.0000 9197.00000  14.3%     -    0s
     0     0 9197.00000    0   28 10736.0000 9197.00000  14.3%     -    0s
     0     0 9197.00000    0   15 10736.0000 9197.00000  14.3%     -    0s
     0     0 9197.00000    0   15 10736.0000 9197.00000  14.3%     -    0s
H    0     0                    10142.000000 9197.00000  9.32%     -    0s
     0     0 9197.00000    0   21 10142.0000 9197.00000  9.32%     -    0s
     0     0 9197.00000    0   13 10142.0000 9197.00000  9.32%     -    0s
     0     2 9197.00000    0   13 10142.0000 9197.00000  9.32%     -    0s
H   34    36                    10047.000000 9197.00000  8.46%  27.3    0s
H   81    86                    10025.000000 9197.00000  8.26%  20.6    0s
H  119   127                    10019.000000 9197.00000  8.20%  19.7    0s
H  121   127                    9995.0000000 9197.00000  7.98%  21.0    0s
H  127   127                    9989.0000000 9197.00000  7.93%  20.7    0s
H  176   182                    9980.0000000 9197.00000  7.85%  22.0    0s
H  286   271                    9967.0000000 9197.00000  7.73%  20.5    0s
H  296   271                    9962.0000000 9197.00000  7.68%  20.3    0s
H  404   399                    9952.0000000 9197.00000  7.59%  20.7    0s
H  558   514                    9938.0000000 9197.00000  7.46%  20.2    0s
H  564   514                    9923.0000000 9197.00000  7.32%  20.3    0s
H 1397  1108                    9851.0000000 9197.00000  6.64%  18.7    0s
H 1484  1068                    9807.0000000 9224.00000  5.94%  18.3    1s
H 1520  1038                    9798.0000000 9228.23026  5.82%  27.2    2s

Cutting planes:
  Learned: 10
  Gomory: 27
  Cover: 13
  Implied bound: 9
  Clique: 6
  MIR: 40
  StrongCG: 2
  Flow cover: 157
  Zero half: 1
  Network: 1
  RLT: 13
  Relax-and-lift: 11

Explored 1520 nodes (48131 simplex iterations) in 2.95 seconds (3.15 work units)
Thread count was 8 (of 8 available processors)

Solution count 10: 9798 9807 9851 ... 9989

Solve interrupted
Best objective 9.798000000000e+03, best bound 9.228831261522e+03, gap 5.8090%

User-callback calls 5275, time in user-callback 0.01 sec

Statistics for modelBPKW_BKRW_BSNF_O:
  Linear constraint matrix    : 4411 Constrs, 2168 Vars, 15763 NZs
  Variable types              : 838 Continuous,
1330 Integer (358 Binary)
  Matrix coefficient range    : [ 1, 200 ]
  Objective coefficient range : [ 1, 368 ]
  Variable bound range        : [ 1, 199 ]
  RHS coefficient range       : [ 1, 549 ]
